44
26
0 26 27 30 31 32 36 38 41 43
1 26 27 28 30 31 33 35 39 40 43
2 26 27 32 33 36 39 43
3 26 27 28 32 35 39 40 43
4 26 27 31 32 33 35 36 39 40 43
5 26 27 28 32 33 36 39 40 41 43
6 26 27 30 31 32 33 39 41 43
7 31 33 35 36 39 43
8 26 31 33 39 40 43
9 26 30 31 33 35 40 41
10 26 28 30 31 32 33 39 43
11 27 31 32 33 35 38 40
12 26 27 30 31 32 33 36 39 43
13 26 27 31 36 39
14 27 29 31 32 33 35 41 42
15 28 31 35 38 41
16 32 36 38 40
17 31 32 33 34 43
18 39 41
19 32 36
20 27 39 41
21 26 33 35
22 38
23 38
24
25 36 37
